db/data/853131470119864136256344469761219678.z3.out
-------------------
2500.137863700
